
  32    1
  10

   0   0   7 2 3 5 6 8 9 13 
   7   1   2 20 4 
   2   7   7 24 23 19 16 14 11 10 
   1   3   5 24 19 16 11 7 
   1   5   3 19 11 7 
   2   4   4 24 19 17 10 
   2   3   4 31 23 17 14 
   5   6   3 17 16 15 
  10   4   2 17 12 
   7   3   4 22 21 20 15 
   5   7   3 31 17 15 
   4   4   4 31 22 21 15 
   9   6   5 31 30 29 28 17 
   7   3   2 21 15 
   4   3   4 30 28 26 18 
  10   6   5 31 30 28 26 21 
   3   4   4 27 26 22 21 
   2   3   3 29 27 25 
   7   4   3 29 28 26 
   5   7   2 31 25 
   5   3   1 25 
   2   4   1 25 
  10   4   1 25 
   2   4   1 27 
   6   2   1 32
   5   2   1 32
   1   3   1 32
   9   3   1 32
   3   3   1 32
   5   5   1 32
   3   4   1 32
   0   0   0 
